
%FILE DATA:	Soccer Computational Problem for MiniZinc Models	%
%AUTHOR:	Jack Wall	%
%CONTACT:  	116397063@umail.ucc.ie			%
%LAST UPDATE:	02/27/2020, 19:27:34						%
%DESCRIPTION: 	88 games played with 22 games left				%


n=11; %number of teams

%Games to play
games=[|3,8|7,2|2,4|6,9|5,10|3,10|11,2|8,6|2,11|3,9|11,5|8,1|6,4|5,2|9,3|2,1|9,7|4,8|7,1|1,7|7,3|3,11|];

%Initial points
iPoints=[31,11,19,13,11,23,26,19,25,32,26];

%POSITION CONSTRAINTS
% [|teamID, operator, position|...]
% operators index:
%  1 for =  operator
%  2 for >  operator
%  3 for >= operator
%  4 for <  operator
%  5 for <= operator
positionConstraints=[|7,1,1|1,4,3|10,2,2|9,3,4|];